Vertices: 25
Edges: 138
Edge Density: 0.46
Degree Variance: 6.158400000000001
Clustering Coefficient: 0.0908695652173913
p edge 25
e 0 3
e 0 4
e 0 5
e 0 7
e 0 8
e 0 10
e 0 11
e 0 14
e 0 17
e 0 19
e 0 22
e 1 3
e 1 4
e 1 7
e 1 10
e 1 12
e 1 13
e 1 14
e 1 16
e 1 17
e 1 18
e 1 19
e 1 21
e 2 5
e 2 7
e 2 11
e 2 14
e 2 16
e 2 18
e 2 21
e 2 22
e 2 23
e 2 24
e 3 5
e 3 6
e 3 7
e 3 9
e 3 11
e 3 15
e 3 17
e 3 18
e 3 20
e 3 21
e 3 22
e 3 23
e 4 7
e 4 11
e 4 13
e 4 19
e 4 21
e 4 23
e 5 7
e 5 8
e 5 10
e 5 14
e 5 17
e 5 20
e 5 21
e 6 8
e 6 9
e 6 11
e 6 14
e 6 17
e 6 18
e 6 19
e 6 20
e 7 8
e 7 10
e 7 12
e 7 16
e 7 17
e 7 20
e 7 22
e 7 23
e 8 10
e 8 11
e 8 12
e 8 13
e 8 15
e 8 17
e 8 18
e 8 22
e 8 24
e 9 10
e 9 12
e 9 14
e 9 16
e 9 19
e 9 21
e 10 15
e 10 16
e 10 17
e 10 23
e 10 24
e 11 12
e 11 13
e 11 14
e 11 16
e 11 19
e 11 21
e 11 22
e 11 23
e 12 13
e 12 14
e 12 17
e 12 18
e 12 19
e 12 21
e 12 22
e 13 14
e 13 15
e 13 17
e 13 18
e 13 20
e 13 21
e 14 15
e 14 17
e 14 19
e 14 20
e 14 23
e 14 24
e 15 16
e 15 19
e 15 20
e 15 24
e 16 17
e 16 19
e 16 22
e 16 23
e 17 19
e 17 24
e 18 23
e 18 24
e 19 20
e 19 21
e 19 23
e 20 21
e 21 23
